50
158
159
164
148
169
166
130
141
135
131
139
171
132
157
128
159
144
128
158
152
168
163
155
141
132
145
145
166
128
157
144
144
136
155
128
130
142
172
152
158
157
155
136
126
147
160
147
140
162
163
